Gurobi Optimizer version 9.1.0 build v9.1.0rc0 (linux64)
Thread count: 8 physical cores, 16 logical processors, using up to 16 threads
Optimize a model with 312174 rows, 301200 columns and 1752950 nonzeros
Model fingerprint: 0xa83c6782
Variable types: 0 continuous, 301200 integer (301200 binary)
Coefficient statistics:
  Matrix range     [1e+00, 1e+00]
  Objective range  [1e+01, 5e+04]
  Bounds range     [1e+00, 1e+00]
  RHS range        [1e+00, 5e+02]
Presolve removed 50 rows and 50 columns (presolve time = 5s) ...
Presolve added 0 rows and 4950 columns
Presolve removed 50 rows and 0 columns
Presolve time: 8.46s
Presolved: 312124 rows, 306150 columns, 1267850 nonzeros
Variable types: 0 continuous, 306150 integer (306150 binary)
Found heuristic solution: objective 670754.00000

Concurrent LP optimizer: primal simplex, dual simplex, and barrier
Showing barrier log only...

Root barrier log...

Ordering time: 0.11s

Barrier statistics:
 Dense cols : 600
 AA' NZ     : 9.758e+05
 Factor NZ  : 6.535e+06 (roughly 300 MBytes of memory)
 Factor Ops : 3.028e+09 (less than 1 second per iteration)
 Threads    : 6

                  Objective                Residual
Iter       Primal          Dual         Primal    Dual     Compl     Time
   0   3.14196130e+08 -4.61692500e+08  4.72e+02 2.92e+01  1.65e+04    15s
   1   1.50964692e+06 -4.93019058e+08  1.45e+00 6.61e+02  5.82e+02    15s
   2   9.25732737e+05 -2.31030652e+08  4.17e-01 2.98e+02  2.60e+02    16s
   3   8.20430786e+05 -1.16356171e+08  2.24e-01 1.47e+02  1.30e+02    17s
   4   7.21713003e+05 -4.80164951e+07  2.85e-02 5.92e+01  5.34e+01    18s
   5   6.88415062e+05 -3.20689723e+06  1.24e-03 1.04e+01  4.25e+00    19s
   6   6.58905112e+05 -5.36212159e+05  7.03e-04 2.53e+00  1.30e+00    20s
   7   6.37841126e+05 -3.65489700e+04  5.64e-04 1.36e+00  7.36e-01    21s
   8   6.21458453e+05  2.13619084e+05  4.80e-04 7.49e-01  4.45e-01    21s
   9   6.09126528e+05  3.17306212e+05  4.22e-04 5.09e-01  3.18e-01    22s
  10   5.97600003e+05  3.96379638e+05  3.71e-04 3.19e-01  2.19e-01    23s
  11   5.80425076e+05  4.45823777e+05  2.96e-04 1.75e-01  1.47e-01    25s
  12   5.70969103e+05  4.65080441e+05  2.57e-04 1.21e-01  1.15e-01    26s
  13   5.62421581e+05  4.81506385e+05  2.22e-04 7.37e-02  8.81e-02    27s
  14   5.51116440e+05  4.88019840e+05  1.78e-04 5.55e-02  6.87e-02    28s
  15   5.47266482e+05  4.93191070e+05  1.64e-04 4.22e-02  5.89e-02    29s
  16   5.39765493e+05  4.97160880e+05  1.34e-04 3.12e-02  4.64e-02    30s
  17   5.35259087e+05  5.00231624e+05  1.17e-04 2.41e-02  3.81e-02    31s
  18   5.30334797e+05  5.02202814e+05  9.60e-05 1.87e-02  3.06e-02    32s
  19   5.26283535e+05  5.04042853e+05  7.86e-05 1.38e-02  2.42e-02    33s
  20   5.23941031e+05  5.04813094e+05  6.82e-05 1.18e-02  2.08e-02    34s
  21   5.21595922e+05  5.05531352e+05  5.73e-05 9.99e-03  1.75e-02    35s
  22   5.20623844e+05  5.05937975e+05  5.31e-05 8.97e-03  1.60e-02    36s
  23   5.18950087e+05  5.06727319e+05  4.56e-05 7.04e-03  1.33e-02    37s
  24   5.16976211e+05  5.07063643e+05  3.64e-05 6.24e-03  1.08e-02    38s
  25   5.15892321e+05  5.07507926e+05  3.13e-05 5.30e-03  9.12e-03    39s
  26   5.15174226e+05  5.07969813e+05  2.82e-05 4.24e-03  7.84e-03    40s
  27   5.14320286e+05  5.08245729e+05  2.39e-05 3.66e-03  6.61e-03    41s
  28   5.13710239e+05  5.08428523e+05  2.07e-05 3.20e-03  5.75e-03    42s
  29   5.12970656e+05  5.08562025e+05  1.70e-05 2.88e-03  4.80e-03    43s
  30   5.12580344e+05  5.08840135e+05  1.50e-05 2.25e-03  4.07e-03    44s
  31   5.12332826e+05  5.09029896e+05  1.38e-05 1.80e-03  3.59e-03    44s
  32   5.11934899e+05  5.09106006e+05  1.17e-05 1.61e-03  3.08e-03    45s
  33   5.11553982e+05  5.09178174e+05  9.67e-06 1.44e-03  2.59e-03    46s
  34   5.11355340e+05  5.09355646e+05  8.57e-06 1.07e-03  2.18e-03    47s
  35   5.11268622e+05  5.09379926e+05  8.11e-06 1.01e-03  2.05e-03    48s
  36   5.11094644e+05  5.09478191e+05  7.22e-06 7.74e-04  1.76e-03    49s
  37   5.10861495e+05  5.09510402e+05  5.95e-06 6.98e-04  1.47e-03    50s
  38   5.10776270e+05  5.09568378e+05  5.49e-06 5.71e-04  1.31e-03    51s
  39   5.10618445e+05  5.09595241e+05  4.67e-06 5.03e-04  1.11e-03    52s
  40   5.10515165e+05  5.09621253e+05  4.11e-06 4.37e-04  9.72e-04    52s
  41   5.10472221e+05  5.09663595e+05  3.86e-06 3.41e-04  8.80e-04    53s
  42   5.10356763e+05  5.09680301e+05  3.23e-06 2.98e-04  7.36e-04    54s
  43   5.10282951e+05  5.09694250e+05  2.80e-06 2.63e-04  6.40e-04    55s
  44   5.10227071e+05  5.09711181e+05  2.46e-06 2.22e-04  5.61e-04    56s
  45   5.10163387e+05  5.09728731e+05  2.08e-06 1.83e-04  4.73e-04    56s
  46   5.10126257e+05  5.09743559e+05  1.90e-06 1.51e-04  4.16e-04    57s
  47   5.10072369e+05  5.09751155e+05  1.58e-06 1.36e-04  3.49e-04    58s
  48   5.10035419e+05  5.09759992e+05  1.36e-06 1.13e-04  3.00e-04    59s
  49   5.09993409e+05  5.09768949e+05  1.13e-06 9.09e-05  2.44e-04    60s
  50   5.09965351e+05  5.09775670e+05  9.77e-07 7.75e-05  2.06e-04    61s
  51   5.09933133e+05  5.09781827e+05  7.86e-07 6.33e-05  1.65e-04    62s
  52   5.09914973e+05  5.09785454e+05  6.77e-07 5.51e-05  1.41e-04    62s
  53   5.09898956e+05  5.09790041e+05  5.77e-07 4.40e-05  1.18e-04    63s
  54   5.09879507e+05  5.09792511e+05  4.52e-07 3.84e-05  9.46e-05    64s
  55   5.09861925e+05  5.09796976e+05  3.35e-07 2.79e-05  7.06e-05    64s
  56   5.09849504e+05  5.09800830e+05  2.52e-07 1.93e-05  5.29e-05    65s
  57   5.09841406e+05  5.09803492e+05  2.00e-07 1.38e-05  4.12e-05    66s
  58   5.09834225e+05  5.09805121e+05  1.54e-07 9.91e-06  3.17e-05    67s
  59   5.09829439e+05  5.09806170e+05  1.25e-07 7.73e-06  2.53e-05    67s
  60   5.09823385e+05  5.09807579e+05  8.77e-08 5.05e-06  1.72e-05    68s
  61   5.09819855e+05  5.09808942e+05  6.45e-08 2.31e-06  1.19e-05    69s
  62   5.09814368e+05  5.09809298e+05  2.75e-08 1.59e-06  5.51e-06    70s
  63   5.09813201e+05  5.09809707e+05  1.99e-08 8.61e-07  3.80e-06    71s
  64   5.09812716e+05  5.09809831e+05  1.67e-08 6.17e-07  3.14e-06    71s
  65   5.09811766e+05  5.09809907e+05  1.01e-08 4.70e-07  2.02e-06    72s
  66   5.09810708e+05  5.09810023e+05  3.11e-09 2.84e-07  7.45e-07    73s
  67   5.09810456e+05  5.09810100e+05  1.61e-09 1.52e-07  3.87e-07    73s
  68   5.09810242e+05  5.09810132e+05  3.02e-10 1.07e-07  1.19e-07    74s
  69   5.09810204e+05  5.09810198e+05  1.12e-10 5.59e-08  6.74e-09    75s
  70   5.09810204e+05  5.09810198e+05  1.61e-08 5.59e-08  6.74e-09    75s
  71   5.09810204e+05  5.09810198e+05  1.93e-08 5.59e-08  6.74e-09    76s
  72   5.09810204e+05  5.09810198e+05  2.59e-08 3.20e-08  6.74e-09    77s

Barrier solved model in 72 iterations and 76.91 seconds
Optimal objective 5.09810204e+05


Root crossover log...

  190309 variables added to crossover basis                       80s

  121597 DPushes remaining with DInf 0.0000000e+00                80s
    1111 DPushes remaining with DInf 0.0000000e+00                92s
      62 DPushes remaining with DInf 0.0000000e+00                95s
       0 DPushes remaining with DInf 0.0000000e+00                96s

    2159 PPushes remaining with PInf 1.7487337e-06                96s
       0 PPushes remaining with PInf 0.0000000e+00                96s

  Push phase complete: Pinf 0.0000000e+00, Dinf 5.5050609e-10     96s


Root simplex log...

Iteration    Objective       Primal Inf.    Dual Inf.      Time
   20697    5.0981020e+05   0.000000e+00   0.000000e+00     96s
   20697    5.0981020e+05   0.000000e+00   0.000000e+00     96s

Solved with barrier

Root relaxation: objective 5.098102e+05, 20697 iterations, 84.69 seconds

    Nodes    |    Current Node    |     Objective Bounds      |     Work
 Expl Unexpl |  Obj  Depth IntInf | Incumbent    BestBd   Gap | It/Node Time

     0     0 509810.200    0 22435 670754.000 509810.200  24.0%     -  100s
H    0     0                    531498.00000 509810.200  4.08%     -  103s
H    0     0                    531381.00000 509810.200  4.06%     -  104s
H    0     0                    531079.00000 509810.200  4.00%     -  107s
     0     0 509810.200    0 22435 531079.000 509810.200  4.00%     -  145s
H    0     0                    530828.00000 509810.200  3.96%     -  247s
H    0     0                    530646.00000 509810.200  3.93%     -  248s
H    0     2                    530544.00000 509810.200  3.91%     -  270s
     0     2 509810.200    0 22426 530544.000 509810.200  3.91%     -  270s

Explored 1 nodes (29801 simplex iterations) in 300.09 seconds
Thread count was 16 (of 16 available processors)

Solution count 7: 530544 530646 530828 ... 670754

Time limit reached
Best objective 5.305440000000e+05, best bound 5.098103573764e+05, gap 3.9080%

User-callback calls 28982, time in user-callback 0.45 sec
['/opt/local/stow/gurobi910/linux64/lib/libgurobi91.so']
Result: runtime=268.82sec; objective=530544; gap=0.0391%
Solution written to /autofs/unityaccount/cremi/mdeboute/Bureau/multi-period-flp/solution//instMulti_I50_J500_T12_0_result.txt
